113	22	4	44	
11	13	11	11

0	0	0	0	0	0	4	1	2	3	4
1	0	0	0	3	3	1	6
2	5	0	0	0	3	1	7
3	0	6	0	0	1	2	9	16
4	0	6	0	0	2	1	5
5	0	0	0	2	10	1	10
6	0	6	0	0	8	1	9
7	0	0	0	10	7	1	8
8	0	4	0	0	6	1	11
9	0	5	0	0	5	1	12
10	0	0	5	0	10	1	17
11	0	0	9	0	2	1	15
12	4	0	0	0	4	1	13
13	7	0	0	0	6	1	14
14	0	0	0	10	9	1	18
15	6	0	0	0	10	1	20
16	10	0	0	0	7	1	19
17	4	0	0	0	1	1	21
18	0	3	0	0	9	1	21
19	0	10	0	0	3	1	21
20	1	0	0	0	7	1	21
21	0	0	0	0	0	0
